
Gurobi 8.1.0 (linux64, Python) logging started Fri Mar  6 05:30:27 2020

Academic license - for non-commercial use only
Warning: Gurobi version mismatch between Python 8.1.1 and C library 8.1.0

Gurobi 8.1.0 (linux64, Python) logging started Fri Mar  6 05:31:35 2020

Academic license - for non-commercial use only
Warning: Gurobi version mismatch between Python 8.1.1 and C library 8.1.0

Gurobi 8.1.0 (linux64, Python) logging started Fri Mar  6 05:47:35 2020

Academic license - for non-commercial use only
Warning: Gurobi version mismatch between Python 8.1.1 and C library 8.1.0

Gurobi 8.1.0 (linux64, Python) logging started Fri Mar  6 09:03:57 2020

Academic license - for non-commercial use only
Warning: Gurobi version mismatch between Python 8.1.1 and C library 8.1.0

Gurobi 8.1.0 (linux64, Python) logging started Fri Mar  6 09:37:36 2020

Academic license - for non-commercial use only
Warning: Gurobi version mismatch between Python 8.1.1 and C library 8.1.0
